U_100_9.txt

VEHICLE     CAPACITY  LOCATIONS  CUSTOMER  OPTIONS  PRIORITIES  NUMTYPS
10		150		121		100		200		3		4

CUSTOMER  DEMAND
0	 10
1	 10
2	 17
3	 12
4	 13
5	 11
6	 14
7	 10
8	 11
9	 14
10	 11
11	 17
12	 14
13	 19
14	 12
15	 12
16	 12
17	 15
18	 17
19	 19
20	 12
21	 15
22	 16
23	 13
24	 12
25	 19
26	 10
27	 19
28	 20
29	 13
30	 15
31	 20
32	 11
33	 13
34	 16
35	 11
36	 13
37	 12
38	 20
39	 19
40	 12
41	 12
42	 19
43	 14
44	 19
45	 10
46	 16
47	 14
48	 15
49	 14
50	 18
51	 13
52	 19
53	 11
54	 15
55	 11
56	 19
57	 13
58	 16
59	 11
60	 19
61	 11
62	 11
63	 13
64	 11
65	 20
66	 19
67	 20
68	 20
69	 12
70	 17
71	 19
72	 20
73	 13
74	 10
75	 20
76	 17
77	 15
78	 19
79	 10
80	 20
81	 17
82	 12
83	 18
84	 15
85	 13
86	 19
87	 19
88	 11
89	 17
90	 13
91	 13
92	 12
93	 18
94	 12
95	 14
96	 13
97	 16
98	 13
99	 20

LOCATION  XCOORD  YCOORD  CAP  READY  DUE  TYP  SERVICETIME
0		5		21		-1		0		720	 0		0
1		28		23		-1		0		360		 2		6
2		5		3		-1		143		263		 2		6
3		11		15		-1		80		320		 2		6
4		47		39		-1		360		720		 2		6
5		46		17		-1		181		301		 2		6
6		34		14		-1		376		496		 2		6
7		40		28		-1		0		360		 2		6
8		26		46		-1		433		673		 2		6
9		29		47		-1		549		669		 2		6
10		1		26		-1		0		360		 2		6
11		2		48		-1		0		360		 2		6
12		26		41		-1		360		720		 2		6
13		50		4		-1		401		521		 2		6
14		49		34		-1		185		305		 2		6
15		33		18		-1		201		321		 2		6
16		9		47		-1		452		572		 2		6
17		30		36		-1		154		274		 2		6
18		41		40		-1		180		300		 2		6
19		48		36		-1		355		595		 2		6
20		18		21		-1		578		698		 2		6
21		32		16		-1		230		350		 2		6
22		20		18		-1		250		490		 2		6
23		21		10		-1		360		720		 2		6
24		15		42		-1		199		319		 2		6
25		38		20		-1		0		360		 2		6
26		3		33		-1		97		217		 2		6
27		40		5		-1		360		720		 2		6
28		18		6		-1		68		188		 2		6
29		39		47		-1		224		344		 2		6
30		42		15		-1		47		287		 2		6
31		33		28		-1		154		394		 2		6
32		36		30		-1		149		269		 2		6
33		39		49		-1		133		373		 2		6
34		28		32		-1		0		360		 2		6
35		6		44		-1		247		487		 2		6
36		19		12		-1		482		602		 2		6
37		13		10		-1		276		516		 2		6
38		44		42		-1		521		641		 2		6
39		20		3		-1		488		608		 2		6
40		3		25		-1		201		321		 2		6
41		15		47		-1		220		340		 2		6
42		49		45		-1		0		360		 2		6
43		39		26		-1		397		517		 2		6
44		18		48		-1		360		720		 2		6
45		9		22		-1		0		360		 2		6
46		25		3		-1		521		641		 2		6
47		5		7		-1		476		596		 2		6
48		3		38		-1		0		360		 2		6
49		30		38		-1		163		403		 2		6
50		18		13		-1		0		360		 2		6
51		1		14		-1		80		200		 2		6
52		42		47		-1		360		720		 2		6
53		27		5		-1		146		266		 2		6
54		27		30		-1		360		720		 2		6
55		37		39		-1		577		697		 2		6
56		15		44		-1		273		513		 2		6
57		43		28		-1		290		530		 2		6
58		9		23		-1		554		674		 2		6
59		35		42		-1		151		391		 2		6
60		29		45		-1		581		701		 2		6
61		16		1		-1		91		331		 2		6
62		43		46		-1		360		720		 2		6
63		24		46		-1		309		549		 2		6
64		7		40		-1		317		557		 2		6
65		23		34		-1		97		217		 2		6
66		44		39		-1		118		358		 2		6
67		28		11		-1		41		161		 2		6
68		21		35		-1		369		489		 2		6
69		14		44		-1		124		364		 2		6
70		8		5		-1		218		338		 2		6
71		21		45		-1		407		527		 2		6
72		16		34		-1		495		615		 2		6
73		8		31		-1		67		307		 2		6
74		8		10		-1		423		663		 2		6
75		3		7		-1		224		344		 2		6
76		35		42		-1		360		720		 2		6
77		29		25		-1		423		663		 2		6
78		47		25		-1		0		360		 2		6
79		46		44		-1		360		720		 2		6
80		29		31		-1		509		629		 2		6
81		37		13		-1		400		520		 2		6
82		47		4		-1		360		720		 2		6
83		1		43		-1		360		720		 2		6
84		35		20		-1		182		422		 2		6
85		11		31		-1		3		243		 2		6
86		27		19		-1		143		263		 2		6
87		29		3		-1		76		196		 2		6
88		25		23		-1		34		274		 2		6
89		34		10		-1		78		198		 2		6
90		18		38		-1		133		253		 2		6
91		25		12		-1		494		614		 2		6
92		49		28		-1		442		562		 2		6
93		46		8		-1		271		511		 2		6
94		3		6		-1		518		638		 2		6
95		48		27		-1		81		201		 2		6
96		42		9		-1		449		689		 2		6
97		26		31		-1		65		305		 2		6
98		22		22		-1		569		689		 2		6
99		35		34		-1		232		352		 2		6
100		17		4		-1		441		681		 2		6
101		9		25		5		151		631		 1		4
102		33		10		4		0		720		 1		4
103		22		13		5		0		720		 1		4
104		30		27		5		239		719		 1		4
105		14		29		3		0		720		 1		4
106		20		18		5		5		485		 1		4
107		26		14		5		0		720		 1		4
108		29		39		5		217		697		 1		4
109		7		43		5		48		528		 1		4
110		8		21		5		0		720		 1		4
111		30		22		4		0		720		 1		4
112		40		31		5		4		484		 1		4
113		40		42		4		0		720		 1		4
114		24		25		5		0		720		 1		4
115		13		39		4		0		720		 1		4
116		37		5		3		0		720		 1		4
117		35		31		5		39		519		 1		4
118		29		28		5		103		583		 1		4
119		9		43		5		166		646		 1		4
120		14		29		5		98		578		 1		4
OPTION  LOCATION  CUSTOMER  PRIO  SERVICETIME   COST
0		102		0		0		2		0
1		116		1		0		2		0
2		103		2		0		2		0
3		109		3		0		2		0
4		101		4		0		2		0
5		120		5		0		2		0
6		116		6		0		2		0
7		103		7		0		2		0
8		114		8		0		2		0
9		116		9		0		2		0
10		106		10		0		2		0
11		112		11		0		2		0
12		113		12		0		2		0
13		117		13		0		2		0
14		119		14		0		2		0
15		119		15		0		2		0
16		105		16		0		2		0
17		107		17		0		2		0
18		102		18		0		2		0
19		105		19		0		2		0
20		1		20		0		5		0
21		2		21		0		5		0
22		3		22		0		5		0
23		4		23		0		5		0
24		5		24		0		5		0
25		6		25		0		5		0
26		7		26		0		5		0
27		8		27		0		5		0
28		9		28		0		5		0
29		10		29		0		5		0
30		11		30		0		5		0
31		12		31		0		5		0
32		13		32		0		5		0
33		14		33		0		5		0
34		15		34		0		5		0
35		16		35		0		5		0
36		17		36		0		5		0
37		18		37		0		5		0
38		19		38		0		5		0
39		20		39		0		5		0
40		21		40		1		5		0
41		111		40		0		2		0
42		22		41		1		5		0
43		107		41		0		2		0
44		23		42		0		5		0
45		106		42		1		2		0
46		24		43		1		5		0
47		120		43		0		2		0
48		25		44		1		5		0
49		118		44		0		2		0
50		26		45		1		5		0
51		105		45		0		2		0
52		27		46		0		5		0
53		103		46		1		2		0
54		28		47		1		5		0
55		106		47		0		2		0
56		29		48		0		5		0
57		114		48		1		2		0
58		30		49		1		5		0
59		111		49		0		2		0
60		31		50		1		5		0
61		112		50		0		2		0
62		32		51		1		5		0
63		101		51		0		2		0
64		33		52		1		5		0
65		106		52		0		2		0
66		34		53		1		5		0
67		114		53		0		2		0
68		35		54		1		5		0
69		104		54		0		2		0
70		36		55		0		5		0
71		107		55		1		2		0
72		37		56		0		5		0
73		103		56		1		2		0
74		38		57		1		5		0
75		118		57		0		2		0
76		39		58		0		5		0
77		102		58		1		2		0
78		40		59		0		5		0
79		110		59		1		2		0
80		41		60		0		5		0
81		105		60		2		2		0
82		118		60		1		2		0
83		42		61		0		5		0
84		112		61		2		2		0
85		105		61		1		2		0
86		43		62		1		5		0
87		111		62		2		2		0
88		117		62		0		2		0
89		44		63		1		5		0
90		112		63		0		2		0
91		110		63		2		2		0
92		45		64		2		5		0
93		106		64		0		2		0
94		120		64		1		2		0
95		46		65		2		5		0
96		107		65		0		2		0
97		106		65		1		2		0
98		47		66		2		5		0
99		106		66		1		2		0
100		112		66		0		2		0
101		48		67		0		5		0
102		120		67		1		2		0
103		108		67		2		2		0
104		49		68		2		5		0
105		118		68		1		2		0
106		103		68		0		2		0
107		50		69		2		5		0
108		106		69		0		2		0
109		120		69		1		2		0
110		51		70		2		5		0
111		105		70		0		2		0
112		101		70		1		2		0
113		52		71		0		5		0
114		108		71		1		2		0
115		112		71		2		2		0
116		53		72		2		5		0
117		116		72		0		2		0
118		103		72		1		2		0
119		54		73		0		5		0
120		117		73		1		2		0
121		119		73		2		2		0
122		55		74		1		5		0
123		117		74		2		2		0
124		108		74		0		2		0
125		56		75		1		5		0
126		109		75		0		2		0
127		105		75		2		2		0
128		57		76		0		5		0
129		118		76		2		2		0
130		104		76		1		2		0
131		58		77		2		5		0
132		106		77		0		2		0
133		110		77		1		2		0
134		59		78		0		5		0
135		117		78		1		2		0
136		112		78		2		2		0
137		60		79		1		5		0
138		113		79		0		2		0
139		103		79		2		2		0
140		61		80		1		5		0
141		62		80		2		5		0
142		107		80		0		2		0
143		63		81		2		5		0
144		64		81		0		5		0
145		108		81		1		2		0
146		65		82		0		5		0
147		66		82		1		5		0
148		114		82		2		2		0
149		67		83		0		5		0
150		68		83		2		5		0
151		115		83		1		2		0
152		69		84		1		5		0
153		70		84		0		5		0
154		109		84		2		2		0
155		71		85		1		5		0
156		72		85		0		5		0
157		111		85		2		2		0
158		73		86		1		5		0
159		74		86		0		5		0
160		105		86		2		2		0
161		75		87		1		5		0
162		76		87		2		5		0
163		117		87		0		2		0
164		77		88		2		5		0
165		78		88		0		5		0
166		117		88		1		2		0
167		79		89		0		5		0
168		80		89		1		5		0
169		113		89		2		2		0
170		81		90		2		5		0
171		82		90		1		5		0
172		107		90		0		2		0
173		83		91		0		5		0
174		84		91		1		5		0
175		116		91		2		2		0
176		85		92		0		5		0
177		86		92		1		5		0
178		101		92		2		2		0
179		87		93		2		5		0
180		88		93		1		5		0
181		104		93		0		2		0
182		89		94		0		5		0
183		90		94		1		5		0
184		113		94		2		2		0
185		91		95		2		5		0
186		92		95		0		5		0
187		117		95		1		2		0
188		93		96		2		5		0
189		94		96		0		5		0
190		106		96		1		2		0
191		95		97		2		5		0
192		96		97		1		5		0
193		107		97		0		2		0
194		97		98		2		5		0
195		98		98		1		5		0
196		106		98		0		2		0
197		99		99		0		5		0
198		100		99		2		5		0
199		115		99		1		2		0
